p tdp 32 61
6 24
17 27
10 12
23 25
16 30
3 12
2 14
10 11
9 20
22 29
16 31
7 28
13 21
11 26
3 19
12 18
21 25
2 5
12 15
22 27
5 9
7 8
4 9
2 32
1 8
16 28
18 24
17 24
25 27
4 23
2 28
12 27
24 28
19 23
11 32
9 18
2 4
2 3
1 24
18 21
23 28
8 19
21 29
12 26
12 14
5 24
16 18
8 29
11 12
17 20
3 15
1 15
5 29
17 21
28 31
9 31
24 29
3 8
28 32
20 21
5 23
